Academic license - for non-commercial use only
Set parameter TimeLimit to value 7200

Gurobi Optimizer version 8.0.0 build v8.0.0rc0 (linux64)
Copyright (c) 2018, Gurobi Optimization, LLC

Read LP format model from file flow/abz9.lp
Reading time = 1.29 seconds
: 108656 rows, 196481 columns, 2788488 nonzeros
Optimize a model with 108656 rows, 196481 columns and 2788488 nonzeros
Variable types: 0 continuous, 196481 integer (196480 binary)
Coefficient statistics:
  Matrix range     [1e+00, 7e+02]
  Objective range  [1e+00, 1e+00]
  Bounds range     [1e+00, 1e+00]
  RHS range        [1e+00, 1e+00]
Presolve removed 6477 rows and 5828 columns (presolve time = 5s) ...
Presolve removed 7239 rows and 6630 columns
Presolve time: 9.34s
Presolved: 101417 rows, 189851 columns, 2758534 nonzeros
Variable types: 0 continuous, 189851 integer (189850 binary)

Deterministic concurrent LP optimizer: dual simplex and barrier
Showing barrier log only...

Presolve removed 107 rows and 88 columns
Presolved: 101310 rows, 189763 columns, 2758296 nonzeros

Root barrier log...

Elapsed ordering time = 5s
Elapsed ordering time = 10s
Elapsed ordering time = 13s
Elapsed ordering time = 15s
Elapsed ordering time = 20s
Ordering time: 20.22s

Barrier statistics:
 AA' NZ     : 4.960e+06
 Factor NZ  : 8.215e+07 (roughly 800 MBytes of memory)
 Factor Ops : 3.555e+11 (roughly 14 seconds per iteration)
 Threads    : 1

                  Objective                Residual
Iter       Primal          Dual         Primal    Dual     Compl     Time
   0   4.04842602e+03 -6.86758987e+05  1.91e+04 1.38e-01  1.92e+02    53s
   1   2.95747637e+03 -6.96815889e+05  1.80e+03 1.41e-01  1.99e+01    74s
   2   1.67218040e+03 -5.30391812e+05  3.34e+02 3.96e-13  4.33e+00    95s
   3   1.53075362e+03 -2.89209176e+05  1.57e+02 2.91e-13  1.84e+00   117s
   4   1.38178155e+03 -1.29031728e+05  8.03e+01 3.00e-13  8.20e-01   139s
   5   1.16529521e+03 -5.07727217e+04  3.12e+01 2.64e-13  3.14e-01   160s
   6   9.33571018e+02 -2.14000668e+04  9.27e+00 4.49e-13  1.11e-01   183s
   7   7.71766665e+02 -8.06656076e+03  3.31e+00 3.08e-13  3.94e-02   206s
   8   7.33427065e+02 -5.05818499e+03  1.85e+00 1.70e-13  2.29e-02   226s
   9   6.85804120e+02 -2.40558599e+03  8.83e-01 9.54e-14  1.06e-02   247s
  10   6.68802108e+02 -1.95352736e+03  6.76e-01 9.23e-14  8.53e-03   269s
  11   6.32959434e+02 -7.95685274e+01  1.22e-01 9.63e-14  1.96e-03   292s
  12   6.18647192e+02  1.98075036e+02  7.43e-02 5.81e-14  1.13e-03   313s
  13   6.01262681e+02  2.96206591e+02  4.53e-02 4.79e-14  8.06e-04   335s
  14   5.76101600e+02  4.33571422e+02  8.98e-03 3.35e-14  3.69e-04   359s
  15   5.67768513e+02  4.78078297e+02  5.45e-03 1.82e-14  2.32e-04   380s
  16   5.65141478e+02  4.88470023e+02  4.64e-03 1.53e-14  1.98e-04   400s
  17   5.61979008e+02  4.97660800e+02  3.75e-03 1.28e-14  1.66e-04   421s
  18   5.58875234e+02  5.04661661e+02  2.96e-03 1.09e-14  1.40e-04   441s
  19   5.55388547e+02  5.10998930e+02  2.19e-03 9.36e-15  1.14e-04   462s
  20   5.50751692e+02  5.24180278e+02  1.40e-03 5.79e-15  6.84e-05   485s
  21   5.44552217e+02  5.34933266e+02  4.05e-04 3.80e-15  2.48e-05   509s
  22   5.42754060e+02  5.37102402e+02  2.15e-04 3.87e-15  1.45e-05   530s
  23   5.41775431e+02  5.38846143e+02  1.36e-04 4.43e-15  7.54e-06   552s
  24   5.41189204e+02  5.39491554e+02  9.21e-05 4.14e-15  4.37e-06   573s
  25   5.40623281e+02  5.39672133e+02  4.62e-05 3.99e-15  2.45e-06   594s
  26   5.40165713e+02  5.39911376e+02  1.08e-05 3.83e-15  6.54e-07   618s
  27   5.40072464e+02  5.39951884e+02  5.11e-06 3.59e-15  3.10e-07   638s
  28   5.39998950e+02  5.39974604e+02  6.93e-07 3.73e-15  6.26e-08   663s
  29   5.39989996e+02  5.39979807e+02  2.78e-07 5.76e-15  2.62e-08   684s
  30   5.39984616e+02  5.39983008e+02  3.93e-08 1.09e-14  4.13e-09   708s
  31   5.39983775e+02  5.39983427e+02  7.29e-09 8.22e-15  8.95e-10   730s
  32   5.39983647e+02  5.39983499e+02  3.00e-09 1.23e-14  3.79e-10   751s
  33   5.39983578e+02  5.39983542e+02  6.05e-09 9.99e-15  9.38e-11   775s
  34   5.39983560e+02  5.39983552e+02  9.70e-09 1.27e-14  2.20e-11   797s
  35   5.39983555e+02  5.39983553e+02  8.94e-09 1.13e-14  4.33e-12   820s

Barrier solved model in 35 iterations and 820.46 seconds
Optimal objective 5.39983555e+02


Root crossover log...

   45847 variables added to crossover basis                      825s

   54674 DPushes remaining with DInf 9.6777889e+00               829s
   15086 DPushes remaining with DInf 4.5523129e+00               854s
    5231 DPushes remaining with DInf 2.3874842e+00               870s
    1617 DPushes remaining with DInf 1.9877157e+00               878s
     532 DPushes remaining with DInf 1.9996635e+00               881s
       0 DPushes remaining with DInf 1.9580575e+01               884s

   12606 PPushes remaining with PInf 9.5179934e-04               884s
     589 PPushes remaining with PInf 3.4169872e+00               917s
       0 PPushes remaining with PInf 2.0315245e+00               920s

  Push phase complete: Pinf 2.0315245e+00, Dinf 1.5299153e+01    920s


Root simplex log...

Iteration    Objective       Primal Inf.    Dual Inf.      Time
   67278    5.3998354e+02   0.000000e+00   1.529915e+01    920s
   67708    5.3998354e+02   0.000000e+00   7.922256e+02    929s
   67948    5.3998354e+02   0.000000e+00   3.840316e+02    933s
   68188    5.3998354e+02   0.000000e+00   6.432008e+03    937s
   68368    5.3998354e+02   0.000000e+00   7.136996e+02    942s
   68548    5.3998354e+02   0.000000e+00   4.944225e+02    947s
   68718    5.3998354e+02   0.000000e+00   1.801270e+03    951s
   68888    5.3998354e+02   0.000000e+00   2.291420e+02    956s
   69068    5.3998354e+02   0.000000e+00   4.655250e+02    960s
   69268    5.3998353e+02   0.000000e+00   1.349342e+03    968s
   69368    5.3998353e+02   0.000000e+00   6.186776e+03    972s
   69478    5.3998353e+02   0.000000e+00   1.946269e+03    976s
   69678    5.3998353e+02   0.000000e+00   5.661959e+02    984s
   69778    5.3998353e+02   0.000000e+00   5.244890e+02    987s
   69888    5.3998353e+02   0.000000e+00   2.949070e+02    992s
   69988    5.3998353e+02   0.000000e+00   1.193413e+03    995s
   70188    5.3998353e+02   0.000000e+00   6.816255e+02   1003s
   70288    5.3998353e+02   0.000000e+00   4.489544e+02   1007s
   70398    5.3998353e+02   0.000000e+00   1.343991e+02   1011s
   70498    5.3998353e+02   0.000000e+00   4.014906e+02   1015s
   70698    5.3998353e+02   0.000000e+00   3.941116e+02   1023s
   70808    5.3998353e+02   0.000000e+00   2.981373e+03   1027s
   70918    5.3998352e+02   0.000000e+00   2.666208e+02   1031s
   71028    5.3998352e+02   0.000000e+00   6.470139e+02   1035s
   71248    5.3998352e+02   0.000000e+00   3.700879e+01   1043s
   71358    5.3998352e+02   0.000000e+00   6.495572e+01   1047s
   71468    5.3998352e+02   0.000000e+00   2.207832e+01   1051s
   71688    5.3998352e+02   0.000000e+00   4.033088e+02   1059s
   71818    5.3998352e+02   0.000000e+00   1.415983e+01   1063s
   71938    5.3998352e+02   0.000000e+00   2.562709e+01   1067s
   72058    5.3998352e+02   0.000000e+00   6.013131e+01   1071s
   72178    5.3998352e+02   0.000000e+00   7.087522e+01   1075s
   72448    5.3998351e+02   0.000000e+00   7.919663e+00   1083s
   72598    5.3998351e+02   0.000000e+00   7.376902e+00   1087s
   72738    5.3998351e+02   0.000000e+00   2.233488e+00   1091s
   73038    5.3998351e+02   0.000000e+00   1.472286e+00   1098s
   73188    5.3998351e+02   0.000000e+00   4.059251e-01   1102s
   73338    5.3998351e+02   0.000000e+00   9.685066e-01   1106s
   73618    5.3998350e+02   0.000000e+00   1.520465e-02   1114s
   73748    5.3998350e+02   0.000000e+00   2.161389e-02   1117s
   73892    5.3998355e+02   4.377324e+01   0.000000e+00   1121s
   74142    5.3998355e+02   3.211760e+01   0.000000e+00   1128s
   74272    5.3998355e+02   1.440685e+03   0.000000e+00   1132s
   74402    5.3998355e+02   5.441358e+00   0.000000e+00   1136s
   74662    5.3998356e+02   7.056348e+01   0.000000e+00   1143s
   74792    5.3998356e+02   3.968836e+00   0.000000e+00   1146s
   75052    5.3998356e+02   8.673917e-01   0.000000e+00   1154s
   75182    5.3998356e+02   1.245707e-01   0.000000e+00   1157s
   75539    5.3998355e+02   0.000000e+00   9.603302e-02   1164s
   75819    5.3998355e+02   0.000000e+00   2.974395e-01   1168s
   76079    5.3998355e+02   0.000000e+00   2.948274e-02   1171s
   76201    5.3998355e+02   0.000000e+00   0.000000e+00   1173s
   76201    5.3998355e+02   0.000000e+00   0.000000e+00   1174s
Concurrent spin time: 90.03s

Solved with barrier

Root relaxation: objective 5.399836e+02, 76201 iterations, 1253.41 seconds
Total elapsed time = 1446.02s
Total elapsed time = 1486.69s
Total elapsed time = 1531.70s
Total elapsed time = 1546.77s

    Nodes    |    Current Node    |     Objective Bounds      |     Work
 Expl Unexpl |  Obj  Depth IntInf | Incumbent    BestBd   Gap | It/Node Time

     0     0  539.98355    0 29493          -  539.98355      -     - 1555s
     0     0  540.00000    0 30725          -  540.00000      -     - 3142s
     0     0          -    0               -  540.00000      -     - 7200s

Cutting planes:
  Implied bound: 1
  Clique: 7
  MIR: 9
  StrongCG: 11

Explored 1 nodes (345614 simplex iterations) in 7200.28 seconds
Thread count was 4 (of 4 available processors)

Solution count 0

Time limit reached
Best objective -, best bound 5.400000000000e+02, gap -

Unable to retrieve attribute 'X'

